(set-logic HORN)
(declare-fun state (Int (Array Int Int) (Array Int Int) (Array Int Int) (Array Int Int) Int Int (Array Int Int) (Array Int Int) Int Int Int Int Int Int Int Int Int Int Int Int Int Int Int Int Int Int Int Int Int Int Int Int Int Int Int Int Int Int Int Bool Bool Bool Bool Bool (Array Int Int) Int) Bool)
(assert (forall ((|A_26| Int) (|B_26| (Array Int Int)) (|C_26| (Array Int Int)) (|D_26| (Array Int Int)) (|E_26| (Array Int Int)) (|F_26| Int) (|G_26| Int) (|H_26| (Array Int Int)) (|I_26| (Array Int Int)) (|J_26| Int) (|K_26| Int) (|L_26| Int) (|M_26| Int) (|N_26| Int) (|P1_16| Int) (|P_26| Int) (|Q_26| Int) (|R_26| Int) (|S_26| Int) (|T_26| Int) (|U_26| Int) (|V_26| Int) (|W_26| Int) (|X_26| Int) (|Y_26| Int) (|Z_26| Int) (|A1_26| Int) (|B1_26| Int) (|C1_26| Int) (|D1_26| Int) (|E1_26| Int) (|F1_26| Int) (|G1_26| Int) (|H1_26| Int) (|I1_26| Int) (|J1_26| Int) (|K1_26| Int) (|L1_26| Int) (|M1_26| Int) (|N1_26| Int) (|O1_26| Bool) (|.loc.5| Bool) (|.loc.6| Bool) (|.loc.7| Bool) (|.loc.8| Bool) (|P1_0| (Array Int Int)) (|R1_2| Int) (|.x.1225| Int) (|.x.1227| (Array Int Int)) (|.x.1229| (Array Int Int)) (|.x.1231| Int) (|.x.1235| Int) (|.x.1233| (Array Int Int)) (|.x.1237| Int) (|.x.1251| Int) (|.x.1241| Int) (|.x.1242| Int) (|.x.1248| Int) (|.x.1247| Int) (|.x.1239| Int) (|.x.1258| Int) (|O1_31| Bool) (|.x.1254| Int) (|.x.1244| Int) (|.x.1236| Int) (|.x.1226| (Array Int Int)) (|.x.1259| Int) (|.loc.9| Bool) (|.loc.11| Bool) (|.loc.10| Bool) (|.x.1253| Int) (|.x.1257| Int) (|.x.1249| Int) (|.x.1240| Int) (|.x.1250| Int) (|.x.1260| Int) (|.x.1245| Int) (|.x.1243| Int) (|.x.1228| (Array Int Int)) (|.x.1252| Int) (|.x.1256| Int) (|.x.1246| Int) (|.loc.12| Bool) (|.x.1255| Int) (|.x.1261| Int) (|.x.1238| Int) (|.x.1262| Int) (|.x.1264| Int) (|.x.1263| Int) (|.x.1230| Int) (|.x.1234| Int) (|.x.1232| (Array Int Int)) (|.xtv.1| (Array Int Int)) (|.xtv.2| Int)) (=> (and (and (and (and (not .loc.6) (not .loc.5)) (not .loc.7)) (not .loc.8)) (and (and (and (and (and (= D_26 E_26) (not O1_26)) (= F_26 G_26)) (= J_26 K_26)) (= H_26 I_26)) (= B_26 C_26))) (state |A_26| |B_26| |C_26| |D_26| |E_26| |F_26| |G_26| |H_26| |I_26| |J_26| |K_26| |L_26| |M_26| |N_26| |P1_16| |P_26| |Q_26| |R_26| |S_26| |T_26| |U_26| |V_26| |W_26| |X_26| |Y_26| |Z_26| |A1_26| |B1_26| |C1_26| |D1_26| |E1_26| |F1_26| |G1_26| |H1_26| |I1_26| |J1_26| |K1_26| |L1_26| |M1_26| |N1_26| |O1_26| |.loc.5| |.loc.6| |.loc.7| |.loc.8| |P1_0| |R1_2|))))
(assert (forall ((|A_26| Int) (|B_26| (Array Int Int)) (|C_26| (Array Int Int)) (|D_26| (Array Int Int)) (|E_26| (Array Int Int)) (|F_26| Int) (|G_26| Int) (|H_26| (Array Int Int)) (|I_26| (Array Int Int)) (|J_26| Int) (|K_26| Int) (|L_26| Int) (|M_26| Int) (|N_26| Int) (|P1_16| Int) (|P_26| Int) (|Q_26| Int) (|R_26| Int) (|S_26| Int) (|T_26| Int) (|U_26| Int) (|V_26| Int) (|W_26| Int) (|X_26| Int) (|Y_26| Int) (|Z_26| Int) (|A1_26| Int) (|B1_26| Int) (|C1_26| Int) (|D1_26| Int) (|E1_26| Int) (|F1_26| Int) (|G1_26| Int) (|H1_26| Int) (|I1_26| Int) (|J1_26| Int) (|K1_26| Int) (|L1_26| Int) (|M1_26| Int) (|N1_26| Int) (|O1_26| Bool) (|.loc.5| Bool) (|.loc.6| Bool) (|.loc.7| Bool) (|.loc.8| Bool) (|P1_0| (Array Int Int)) (|R1_2| Int) (|.x.1225| Int) (|.x.1227| (Array Int Int)) (|.x.1229| (Array Int Int)) (|.x.1231| Int) (|.x.1235| Int) (|.x.1233| (Array Int Int)) (|.x.1237| Int) (|.x.1251| Int) (|.x.1241| Int) (|.x.1242| Int) (|.x.1248| Int) (|.x.1247| Int) (|.x.1239| Int) (|.x.1258| Int) (|O1_31| Bool) (|.x.1254| Int) (|.x.1244| Int) (|.x.1236| Int) (|.x.1226| (Array Int Int)) (|.x.1259| Int) (|.loc.9| Bool) (|.loc.11| Bool) (|.loc.10| Bool) (|.x.1253| Int) (|.x.1257| Int) (|.x.1249| Int) (|.x.1240| Int) (|.x.1250| Int) (|.x.1260| Int) (|.x.1245| Int) (|.x.1243| Int) (|.x.1228| (Array Int Int)) (|.x.1252| Int) (|.x.1256| Int) (|.x.1246| Int) (|.loc.12| Bool) (|.x.1255| Int) (|.x.1261| Int) (|.x.1238| Int) (|.x.1262| Int) (|.x.1264| Int) (|.x.1263| Int) (|.x.1230| Int) (|.x.1234| Int) (|.x.1232| (Array Int Int)) (|.xtv.1| (Array Int Int)) (|.xtv.2| Int)) (=> (and (state |A_26| |B_26| |C_26| |D_26| |E_26| |F_26| |G_26| |H_26| |I_26| |J_26| |K_26| |L_26| |M_26| |N_26| |P1_16| |P_26| |Q_26| |R_26| |S_26| |T_26| |U_26| |V_26| |W_26| |X_26| |Y_26| |Z_26| |A1_26| |B1_26| |C1_26| |D1_26| |E1_26| |F1_26| |G1_26| |H1_26| |I1_26| |J1_26| |K1_26| |L1_26| |M1_26| |N1_26| |O1_26| |.loc.5| |.loc.6| |.loc.7| |.loc.8| |P1_0| |R1_2|) (let ((.def_57 (not .loc.6))) (let ((.def_58 (not .loc.5))) (let ((.def_60 (not .loc.7))) (let ((.def_62 (not .loc.8))) (let ((.def_103 (= .x.1242 .x.1248))) (let ((.def_106 (= .x.1248 .x.1247))) (let ((.def_118 (and (= .x.1242 .x.1239) (and (<= .x.1239 2147483647) (<= (- 2147483648) .x.1239))))) (let ((.def_121 (= H1_26 .x.1258))) (let ((.def_125 (= D1_26 .x.1254))) (let ((.def_128 (= T_26 .x.1244))) (let ((.def_131 (= L_26 .x.1236))) (let ((.def_134 (= B_26 .x.1226))) (let ((.def_151 (ite (and (not (= (+ C1_26 (* (- 1000) (to_int (* (/ 1 1000) (to_real C1_26))))) 0)) (not (<= 0 C1_26))) (+ 1 (to_int (* (/ 1 1000) (to_real C1_26)))) (to_int (* (/ 1 1000) (to_real C1_26)))))) (let ((.def_161 (ite (<= (+ .def_151 (* (- 4294967296) (to_int (* (/ 1 4294967296) (to_real .def_151))))) 2147483647) (+ .def_151 (* (- 4294967296) (to_int (* (/ 1 4294967296) (to_real .def_151))))) (+ (- 4294967296) (+ .def_151 (* (- 4294967296) (to_int (* (/ 1 4294967296) (to_real .def_151))))))))) (let ((.def_163 (or O1_26 (= .x.1239 .def_161)))) (let ((.def_176 (= O1_26 O1_31))) (let ((.def_179 (= I1_26 .x.1259))) (let ((.def_181 (= R_26 .x.1242))) (let ((.def_183 (= P1_16 .x.1239))) (let ((.def_188 (not .loc.9))) (let ((.def_192 (not .loc.10))) (let ((.def_201 (and .def_134 (and .def_131 (and .def_128 (and .def_121 .def_125)))))) (let ((.def_207 (not .loc.11))) (let ((.def_240 (and .loc.5 .def_201))) (let ((.def_249 (<= 1000 Y_26))) (let ((.def_250 (or O1_26 .def_249))) (let ((.def_254 (= C1_26 .x.1253))) (let ((.def_256 (= G1_26 .x.1257))) (let ((.def_259 (= Y_26 .x.1249))) (let ((.def_262 (= P_26 .x.1240))) (let ((.def_277 (or O1_31 (= (+ Y_26 (* (- 1) .x.1249)) (- 1))))) (let ((.def_295 (or O1_26 (and (= (+ Y_26 (+ C1_26 (+ (* (- 1) .x.1253) (select (select D_26 S_26) (+ (* 4 Y_26) Z_26))))) 0) (not .def_249))))) (let ((.def_299 (= Z_26 .x.1250))) (let ((.def_301 (= J1_26 .x.1260))) (let ((.def_304 (= U_26 .x.1245))) (let ((.def_307 (= S_26 .x.1243))) (let ((.def_310 (= D_26 .x.1228))) (let ((.def_315 (select D_26 L_26))) (let ((.def_319 (= D1_26 .x.1245))) (let ((.def_320 (= L_26 .x.1260))) (let ((.def_322 (= .x.1253 0))) (let ((.def_324 (= .x.1250 .x.1245))) (let ((.def_326 (= .x.1249 0))) (let ((.def_328 (= .x.1260 .x.1243))) (let ((.def_371 (<= 999 B1_26))) (let ((.def_374 (and .def_256 (and .def_121 .def_301)))) (let ((.def_383 (and .def_131 (and .def_262 (and .def_307 (and .def_128 (and .def_304 (and .def_259 (and .def_299 (and .def_254 (and .def_125 .def_374))))))))))) (let ((.def_400 (= B1_26 .x.1252))) (let ((.def_402 (= F1_26 .x.1256))) (let ((.def_405 (= V_26 .x.1246))) (let ((.def_438 (not .loc.12))) (let ((.def_444 (= E1_26 .x.1255))) (let ((.def_446 (= K1_26 .x.1261))) (let ((.def_448 (= W_26 .x.1247))) (let ((.def_451 (= N_26 .x.1238))) (let ((.def_528 (and .def_121 (and .def_301 .def_446)))) (let ((.def_590 (= X_26 .x.1248))) (let ((.def_592 (= L1_26 .x.1262))) (let ((.def_594 (= N1_26 .x.1264))) (let ((.def_596 (= M1_26 .x.1263))) (let ((.def_598 (and .def_592 (and .def_594 .def_596)))) (let ((.def_606 (select D_26 .x.1236))) (let ((.def_677 (and .loc.5 (and .def_134 (and .def_310 (and .def_131 (and .def_451 (and .def_262 (and .def_307 (and .def_128 (and .def_304 (and .def_405 (and .def_448 (and .def_590 (and .def_259 (and .def_299 (and .def_400 (and .def_254 (and .def_125 (and .def_444 (and .def_402 (and .def_256 (and .def_121 (and .def_301 (and .def_446 (and .def_592 (and .def_596 (and O1_26 .def_594)))))))))))))))))))))))))))) (let ((.def_690 (and .def_446 .def_598))) (let ((.def_692 (and .def_121 (and .def_301 .def_690)))) (let ((.def_709 (and .def_131 (and .def_451 (and .def_262 (and .def_307 (and .def_128 (and .def_304 (and .def_405 (and .def_448 (and .def_590 (and .def_259 (and .def_299 (and .def_400 (and .def_254 (and .def_125 (and .def_444 (and .def_402 (and .def_256 .def_692))))))))))))))))))) (let ((.def_712 (and .loc.5 (and .def_134 (and .def_310 .def_709))))) (let ((.def_800 (<= 1000 A1_26))) (and (and (= A_26 .x.1225) (and (= C_26 .x.1227) (and (= E_26 .x.1229) (and (= G_26 .x.1231) (and (= K_26 .x.1235) (= I_26 .x.1233)))))) (or (and (or (and (and (= M_26 .x.1237) (and (= A1_26 .x.1251) (= Q_26 .x.1241))) (or (or (or (or (or (or (or (and (or (or (or (or (and (or (and (or (or (and (or (and (or (and (or (or (and .loc.6 (or (or (and (or (and .def_58 (and (or (not .def_103) (or O1_26 (not .def_106))) (and (or O1_26 .def_118) (and (and (and (and (and (and .def_121 O1_31) .def_125) .def_128) .def_131) .def_134) .def_163)))) (and (or O1_26 (and (= .x.1258 1) (= .x.1226 (store B_26 L_26 0)))) (and (and (and (and (and .loc.5 (or O1_31 (= .x.1258 .x.1244))) .def_176) .def_179) .def_181) .def_183))) (and (and .def_188 .loc.11) .def_192)) (and (or .def_118 O1_31) (and (or O1_31 (and .def_103 .def_106)) (and (and .def_176 (and .loc.10 (and .loc.9 (and .def_58 (and .def_163 .def_201))))) .def_207)))) (and .def_207 (and .loc.10 (and .loc.9 (and .def_58 (and .def_163 (and .def_134 (and .def_131 (and .def_128 (and .def_125 (and .def_121 (and O1_26 O1_31))))))))))))) (and .def_57 (and .def_207 (and .def_183 (and .def_181 (and .def_179 (and .def_176 (and .def_188 (and .loc.10 (and .loc.5 (and .def_134 (and .def_131 (and .def_128 (and .def_125 (and O1_26 .def_121))))))))))))))) (and (and .def_57 (and .def_207 (and .def_183 (and .def_181 (and .def_179 (and .def_176 (and .def_188 (and .loc.10 .def_240)))))))) .def_250)) (and (and (and .def_254 .def_256) .def_259) .def_262)) (and (and (and .def_57 (and .def_207 (and .def_183 (and .def_181 (and .def_179 (and .def_176 (and .def_192 (and .loc.9 .def_240)))))))) .def_277) .def_295)) (and (and (and (and .def_299 .def_301) .def_304) .def_307) .def_310)) (and (or O1_26 (and (= .x.1228 (store D_26 L_26 (store .def_315 (+ D1_26 3996) N_26))) (and (and (and (and (and .def_319 .def_320) .def_322) .def_324) .def_326) .def_328))) (and .def_57 (and .def_207 (and .def_181 (and .def_179 (and .def_176 (and .def_192 (and .loc.9 (and .def_58 .def_201)))))))))) (and .loc.8 .def_60)) (and .def_62 (and .def_207 (and .def_183 (and .def_181 (and .def_179 (and .def_176 (and .def_192 (and .def_188 (and .loc.7 (and .loc.6 (and .loc.5 (and .def_134 (and .def_310 (and .def_131 (and .def_262 (and .def_307 (and .def_128 (and .def_304 (and .def_259 (and .def_299 (and .def_254 (and .def_125 (and .def_256 (and .def_121 (and O1_26 .def_301)))))))))))))))))))))))))) (and (or O1_26 .def_371) (and .def_62 (and .def_207 (and .def_183 (and .def_181 (and .def_179 (and .def_176 (and .def_192 (and .def_188 (and .loc.7 (and .loc.6 (and .loc.5 (and .def_134 (and .def_310 .def_383))))))))))))))) (and (and (and .def_400 .def_402) .def_405) .loc.12)) (and (or O1_26 (and (= .x.1228 (store D_26 L_26 (store .def_315 (+ (* 4 B1_26) D1_26) (select .def_315 (+ (+ (* 4 B1_26) D1_26) 4))))) (not .def_371))) (and (or O1_31 (= (+ B1_26 (* (- 1) .x.1252)) (- 1))) (and (and .def_62 (and .def_183 (and .def_181 (and .def_179 (and .def_176 (and .loc.11 (and .loc.10 (and .loc.9 (and .loc.7 (and .loc.6 (and .loc.5 (and .def_134 .def_383)))))))))))) .def_438)))) (and (and (and .def_444 .def_446) .def_448) .def_451)) (and (or O1_31 (and (and (and (= .x.1247 .x.1239) (and (<= .x.1247 2147483647) (<= (- 2147483648) .x.1247))) (= .x.1252 0)) (= .x.1238 (select (select .x.1228 .x.1236) .x.1254)))) (and .def_438 (and .def_62 (and .def_181 (and .def_179 (and .def_176 (and .loc.11 (and .loc.10 (and .loc.9 (and .def_58 (and .loc.7 (and .loc.6 (and .def_163 (and .def_134 (and .def_310 (and .def_131 (and .def_262 (and .def_307 (and .def_128 (and .def_304 (and .def_405 (and .def_259 (and .def_299 (and .def_254 (and .def_125 (and .def_374 .def_402))))))))))))))))))))))))))) (and .def_438 (and .def_62 (and .def_57 (and .def_183 (and .def_181 (and .def_179 (and .def_176 (and .def_188 (and .loc.11 (and .loc.10 (and .loc.7 (and .loc.5 (and .def_134 (and .def_310 (and .def_131 (and .def_451 (and .def_262 (and .def_307 (and .def_128 (and .def_304 (and .def_405 (and .def_448 (and .def_259 (and .def_299 (and .def_400 (and .def_254 (and .def_125 (and .def_444 (and .def_402 (and .def_256 (and .def_121 (and .def_301 (and O1_26 .def_446)))))))))))))))))))))))))))))))))) (and .def_438 (and .def_62 (and .def_250 (and .def_57 (and .def_183 (and .def_181 (and .def_179 (and .def_176 (and .def_188 (and .loc.11 (and .loc.10 (and .loc.7 (and .loc.5 (and .def_134 (and .def_310 (and .def_131 (and .def_451 (and .def_262 (and .def_307 (and .def_128 (and .def_304 (and .def_405 (and .def_448 (and .def_259 (and .def_299 (and .def_400 (and .def_254 (and .def_125 (and .def_444 (and .def_402 (and .def_256 .def_528)))))))))))))))))))))))))))))))) (and .def_438 (and .def_62 (and .def_295 (and .def_277 (and .def_57 (and .def_183 (and .def_181 (and .def_179 (and .def_176 (and .def_192 (and .loc.11 (and .loc.9 (and .loc.7 (and .loc.5 (and .def_134 (and .def_310 (and .def_131 (and .def_451 (and .def_307 (and .def_128 (and .def_304 (and .def_405 (and .def_448 (and .def_299 (and .def_400 (and .def_125 (and .def_444 (and .def_402 .def_528))))))))))))))))))))))))))))) (and .def_590 .def_598)) (and (or O1_26 (= R1_2 .def_161)) (and (or O1_31 (and (and .def_328 (and (and .def_322 (and .def_324 (and (and .def_326 (and (and (and (<= (- 2147483648) R1_2) (<= R1_2 2147483647)) (= .x.1238 (select .def_606 .x.1254))) (= .x.1254 .x.1245))) (= .x.1236 .x.1260)))) (= R1_2 .x.1248))) (= .x.1228 (store D_26 .x.1236 (store (store .def_606 .x.1254 (select .def_606 (+ .x.1254 4))) (+ .x.1254 4) .x.1238))))) (and .def_438 (and .def_62 (and .def_57 (and .def_181 (and .def_179 (and .def_176 (and .def_192 (and .loc.11 (and .loc.9 (and .def_58 (and .loc.7 (and .def_134 (and .def_131 (and .def_128 (and .def_405 (and .def_448 (and .def_400 (and .def_125 (and .def_444 (and .def_402 (and .def_121 .def_446)))))))))))))))))))))))) (and .def_438 (and .def_62 (and .def_183 (and .def_181 (and .def_179 (and .def_176 (and .def_192 (and .def_188 (and .loc.11 (and .def_60 (and .loc.6 .def_677)))))))))))) (and .def_438 (and .def_62 (and .def_250 (and .def_183 (and .def_181 (and .def_179 (and .def_176 (and .def_192 (and .def_188 (and .loc.11 (and .def_60 (and .loc.6 .def_712))))))))))))) (and .def_438 (and .def_62 (and .def_295 (and .def_277 (and .def_207 (and .def_183 (and .def_181 (and .def_179 (and .def_176 (and .loc.10 (and .loc.9 (and .def_60 (and .loc.6 (and .loc.5 (and .def_134 (and .def_310 (and .def_131 (and .def_451 (and .def_307 (and .def_128 (and .def_304 (and .def_405 (and .def_448 (and .def_590 (and .def_299 (and .def_400 (and .def_125 (and .def_444 (and .def_402 .def_692)))))))))))))))))))))))))))))) (and (or O1_26 (and .def_319 (and .def_326 (and .def_324 (and .def_320 (and .def_322 .def_328)))))) (and .def_438 (and .def_62 (and .def_207 (and .def_181 (and .def_179 (and .def_176 (and .loc.10 (and .loc.9 (and .def_60 (and .def_58 (and .loc.6 (and .def_134 (and .def_310 (and .def_131 (and .def_451 (and .def_128 (and .def_405 (and .def_448 (and .def_590 (and .def_400 (and .def_125 (and .def_444 (and .def_402 (and .def_121 .def_690)))))))))))))))))))))))))) (and .def_438 (and .def_62 (and .def_57 (and .def_207 (and .def_183 (and .def_181 (and .def_179 (and .def_176 (and .def_188 (and .loc.10 (and .def_60 .def_677)))))))))))) (and (or O1_26 .def_800) (and .def_438 (and .def_62 (and .def_57 (and .def_207 (and .def_183 (and .def_181 (and .def_179 (and .def_176 (and .def_188 (and .loc.10 (and .def_60 .def_712)))))))))))))) (and (or O1_26 (and (= .x.1228 (store D_26 L_26 (store .def_315 (+ (* 4 A1_26) D1_26) M_26))) (and (<= (- 2147483648) M_26) (and (<= M_26 2147483647) (not .def_800))))) (and (or O1_31 (= (+ A1_26 (* (- 1) .x.1251)) (- 1))) (and .def_438 (and .def_62 (and .def_57 (and .def_207 (and .def_183 (and .def_181 (and .def_179 (and .def_176 (and .def_192 (and .loc.9 (and .def_60 (and .loc.5 (and .def_134 .def_709)))))))))))))))) (and (= F_26 .x.1230) (and (= J_26 .x.1234) (= H_26 .x.1232)))) (and (or O1_26 (and (and (= .x.1234 0) (= .x.1230 0)) (= P1_0 (store B_26 0 0)))) (and (or O1_31 (and (and (and (and (and (and (not (<= .x.1225 .x.1236)) (not (= .x.1236 0))) (= .x.1251 0)) (= .x.1254 0)) (= (select P1_0 .x.1236) 0)) (= .x.1232 (store H_26 .x.1236 4000))) (= .x.1226 (store P1_0 .x.1236 1)))) (and .def_438 (and .def_62 (and .def_57 (and .def_207 (and .def_183 (and .def_176 (and .def_192 (and .loc.9 (and .def_60 (and .def_58 (and .def_310 (and .def_262 (and .def_307 (and .def_128 (and .def_304 (and .def_259 (and .def_299 (and .def_254 (and .def_256 .def_301)))))))))))))))))))))))))))))))))))))))))))))))))))))))))))))))))))))))))))))))))))))))))))) (state |.x.1225| |.x.1226| |.x.1227| |.x.1228| |.x.1229| |.x.1230| |.x.1231| |.x.1232| |.x.1233| |.x.1234| |.x.1235| |.x.1236| |.x.1237| |.x.1238| |.x.1239| |.x.1240| |.x.1241| |.x.1242| |.x.1243| |.x.1244| |.x.1245| |.x.1246| |.x.1247| |.x.1248| |.x.1249| |.x.1250| |.x.1251| |.x.1252| |.x.1253| |.x.1254| |.x.1255| |.x.1256| |.x.1257| |.x.1258| |.x.1259| |.x.1260| |.x.1261| |.x.1262| |.x.1263| |.x.1264| |O1_31| |.loc.9| |.loc.10| |.loc.11| |.loc.12| |.xtv.1| |.xtv.2|))))
(assert (forall ((|A_26| Int) (|B_26| (Array Int Int)) (|C_26| (Array Int Int)) (|D_26| (Array Int Int)) (|E_26| (Array Int Int)) (|F_26| Int) (|G_26| Int) (|H_26| (Array Int Int)) (|I_26| (Array Int Int)) (|J_26| Int) (|K_26| Int) (|L_26| Int) (|M_26| Int) (|N_26| Int) (|P1_16| Int) (|P_26| Int) (|Q_26| Int) (|R_26| Int) (|S_26| Int) (|T_26| Int) (|U_26| Int) (|V_26| Int) (|W_26| Int) (|X_26| Int) (|Y_26| Int) (|Z_26| Int) (|A1_26| Int) (|B1_26| Int) (|C1_26| Int) (|D1_26| Int) (|E1_26| Int) (|F1_26| Int) (|G1_26| Int) (|H1_26| Int) (|I1_26| Int) (|J1_26| Int) (|K1_26| Int) (|L1_26| Int) (|M1_26| Int) (|N1_26| Int) (|O1_26| Bool) (|.loc.5| Bool) (|.loc.6| Bool) (|.loc.7| Bool) (|.loc.8| Bool) (|P1_0| (Array Int Int)) (|R1_2| Int) (|.x.1225| Int) (|.x.1227| (Array Int Int)) (|.x.1229| (Array Int Int)) (|.x.1231| Int) (|.x.1235| Int) (|.x.1233| (Array Int Int)) (|.x.1237| Int) (|.x.1251| Int) (|.x.1241| Int) (|.x.1242| Int) (|.x.1248| Int) (|.x.1247| Int) (|.x.1239| Int) (|.x.1258| Int) (|O1_31| Bool) (|.x.1254| Int) (|.x.1244| Int) (|.x.1236| Int) (|.x.1226| (Array Int Int)) (|.x.1259| Int) (|.loc.9| Bool) (|.loc.11| Bool) (|.loc.10| Bool) (|.x.1253| Int) (|.x.1257| Int) (|.x.1249| Int) (|.x.1240| Int) (|.x.1250| Int) (|.x.1260| Int) (|.x.1245| Int) (|.x.1243| Int) (|.x.1228| (Array Int Int)) (|.x.1252| Int) (|.x.1256| Int) (|.x.1246| Int) (|.loc.12| Bool) (|.x.1255| Int) (|.x.1261| Int) (|.x.1238| Int) (|.x.1262| Int) (|.x.1264| Int) (|.x.1263| Int) (|.x.1230| Int) (|.x.1234| Int) (|.x.1232| (Array Int Int)) (|.xtv.1| (Array Int Int)) (|.xtv.2| Int)) (=> (state |A_26| |B_26| |C_26| |D_26| |E_26| |F_26| |G_26| |H_26| |I_26| |J_26| |K_26| |L_26| |M_26| |N_26| |P1_16| |P_26| |Q_26| |R_26| |S_26| |T_26| |U_26| |V_26| |W_26| |X_26| |Y_26| |Z_26| |A1_26| |B1_26| |C1_26| |D1_26| |E1_26| |F1_26| |G1_26| |H1_26| |I1_26| |J1_26| |K1_26| |L1_26| |M1_26| |N1_26| |O1_26| |.loc.5| |.loc.6| |.loc.7| |.loc.8| |P1_0| |R1_2|) (not (and O1_26 (and .loc.8 (and .loc.7 (and (not .loc.6) (not .loc.5)))))))))
(check-sat)
